NAME : rc205.1.8992354.tour
COMMENT : Length = 8992354
COMMENT : Found by LKH [Keld Helsgaun] Tue May  2 05:49:38 2017
TYPE : TOUR
DIMENSION : 23
TOUR_SECTION
1
12
17
10
15
18
8
7
14
9
6
11
19
22
2
20
3
13
21
5
4
16
23
-1
EOF
